benchmark/results/graph__10-1000-0.10-02_8/graph__10-1000-0.10-02_8_QuintonOs_Benders_aux.lp
\ This file has been generated by DOcplex
\ ENCODING=ISO-8859-1
\Problem name: Quinton Bounded Benders_auxiliary_sub

Minimize
 obj: 0.001840509056 pi_nr_a0 + 0.001033753279 pi_nr_a1
      + 0.001097694841 pi_nr_a2 + 0.001033057851 pi_nr_a3
      + 0.001118182193 pi_nr_a4 + 0.001159994288 pi_nr_a5
      + 0.000847264301 pi_nr_a6 + 0.001267357029 pi_nr_a7
      + 0.001245408803 pi_nr_a8 + 0.001272981617 pi_nr_a9 + pi_p_a1_a0
      + pi_p_a2_a0 + pi_p_a1_a7 + pi_p_a1_a4 + pi_p_a6_a3 + pi_p_a2_a2
      + 2329.081700594728 pi_d_a0_a1_proc_1 + 115.159853649364 pi_d_a0_a1_proc_0
      + 2327.840146350635 pi_d_a1_a0_proc_1 + 113.918299405272 pi_d_a1_a0_proc_0
      + 1184.124998860873 pi_d_a0_a2_proc_1
      + 1259.559513291696 pi_d_a0_a2_proc_0
      + 1183.440486708304 pi_d_a2_a0_proc_1
      + 1258.875001139127 pi_d_a2_a0_proc_0
      + 1175.258486348481 pi_d_a0_a3_proc_1
      + 1192.306998509984 pi_d_a3_a0_proc_1
      + 1260.411969424035 pi_d_a0_a4_proc_1
      + 1184.134401803907 pi_d_a0_a4_proc_0
      + 1258.865598196093 pi_d_a4_a0_proc_1
      + 1182.588030575965 pi_d_a4_a0_proc_0
      + 2366.724228436894 pi_d_a0_a5_proc_1 + 75.278861476269 pi_d_a0_a5_proc_0
      + 2367.721138523731 pi_d_a5_a0_proc_1 + 76.275771563106 pi_d_a5_a0_proc_0
      + 1259.679546581632 pi_d_a0_a6_proc_1
      + 1183.384513870975 pi_d_a0_a6_proc_0
      + 1259.615486129025 pi_d_a6_a0_proc_1
      + 1183.320453418368 pi_d_a6_a0_proc_0
      + 2365.637201430921 pi_d_a0_a7_proc_1 + 75.674160368343 pi_d_a0_a7_proc_0
      + 2367.325839631657 pi_d_a7_a0_proc_1 + 77.362798569078 pi_d_a7_a0_proc_0
      + 1204.396728667196 pi_d_a0_a8_proc_1
      + 1261.034911692377 pi_d_a0_a8_proc_0
      + 1181.965088307623 pi_d_a8_a0_proc_1
      + 1238.603271332804 pi_d_a8_a0_proc_0
      + 2364.114381296221 pi_d_a0_a9_proc_1 + 78.628599667794 pi_d_a0_a9_proc_0
      + 2364.371400332207 pi_d_a9_a0_proc_1 + 78.885618703778 pi_d_a9_a0_proc_0
      + 1155.928097437551 pi_d_a1_a2_proc_1
      + 1308.571734639941 pi_d_a1_a2_proc_0
      + 1134.428265360059 pi_d_a2_a1_proc_1
      + 1287.071902562449 pi_d_a2_a1_proc_0
      + 1154.828755982331 pi_d_a1_a3_proc_1
      + 1135.527606104568 pi_d_a3_a1_proc_1
      + 1231.162197851383 pi_d_a1_a4_proc_1
      + 1232.093753002822 pi_d_a1_a4_proc_0
      + 1210.906246997178 pi_d_a4_a1_proc_1
      + 1211.837802148617 pi_d_a4_a1_proc_0
      + 2330.144084957565 pi_d_a1_a5_proc_1 + 115.907840768507 pi_d_a1_a5_proc_0
      + 2327.092159231493 pi_d_a5_a1_proc_1 + 112.855915042435 pi_d_a5_a1_proc_0
      + 1229.869171819068 pi_d_a1_a6_proc_1
      + 1230.783261879978 pi_d_a1_a6_proc_0
      + 1212.216738120022 pi_d_a6_a1_proc_1
      + 1213.130828180932 pi_d_a6_a1_proc_0
      + 2329.409425758753 pi_d_a1_a7_proc_1 + 116.655507467740 pi_d_a1_a7_proc_0
      + 2326.344492532260 pi_d_a7_a1_proc_1 + 113.590574241247 pi_d_a7_a1_proc_0
      + 1165.280657485356 pi_d_a1_a8_proc_1
      + 1299.127963282104 pi_d_a1_a8_proc_0
      + 1143.872036717896 pi_d_a8_a1_proc_1
      + 1277.719342514644 pi_d_a8_a1_proc_0
      + 2327.190969423759 pi_d_a1_a9_proc_1 + 118.914310566898 pi_d_a1_a9_proc_0
      + 2324.085689433102 pi_d_a9_a1_proc_1 + 115.809030576241 pi_d_a9_a1_proc_0
      - 2.335979838284 pi_d_a2_a3_proc_1 + 3.335980548995 pi_d_a3_a2_proc_1
      + 76.629410570936 pi_d_a2_a4_proc_1 + 2366.917327098562 pi_d_a2_a4_proc_0
      + 76.082672901438 pi_d_a4_a2_proc_1 + 2366.370589429064 pi_d_a4_a2_proc_0
      + 1195.093749999513 pi_d_a2_a5_proc_1
      + 1270.213867186642 pi_d_a2_a5_proc_0
      + 1172.786132813358 pi_d_a5_a2_proc_1
      + 1247.906250000487 pi_d_a5_a2_proc_0 + 73.388688038781 pi_d_a2_a6_proc_1
      + 2363.659139475878 pi_d_a2_a6_proc_0 + 79.340860524122 pi_d_a6_a2_proc_1
      + 2369.611311961219 pi_d_a6_a2_proc_0
      + 1194.308738537712 pi_d_a2_a7_proc_1
      + 1270.911181622886 pi_d_a2_a7_proc_0
      + 1172.088818377114 pi_d_a7_a2_proc_1
      + 1248.691261462288 pi_d_a7_a2_proc_0 + 10.301337952839 pi_d_a2_a8_proc_1
      + 2433.505005125774 pi_d_a2_a8_proc_0 + 9.494994874226 pi_d_a8_a2_proc_1
      + 2432.698662047161 pi_d_a8_a2_proc_0
      + 1180.010938953229 pi_d_a2_a9_proc_1
      + 1261.090641472555 pi_d_a2_a9_proc_0
      + 1181.909358527446 pi_d_a9_a2_proc_1
      + 1262.989061046771 pi_d_a9_a2_proc_0 + 79.509379664713 pi_d_a3_a4_proc_1
      + 73.202703096950 pi_d_a4_a3_proc_1 + 1181.649897872781 pi_d_a3_a5_proc_1
      + 1186.229984229379 pi_d_a5_a3_proc_1 + 76.610373669841 pi_d_a3_a6_proc_1
      + 76.119174182350 pi_d_a6_a3_proc_1 + 1172.365337205632 pi_d_a3_a7_proc_1
      + 1194.032218998482 pi_d_a7_a3_proc_1 + 13.568382021407 pi_d_a3_a8_proc_1
      + 6.227950094947 pi_d_a8_a3_proc_1 + 1173.208235382168 pi_d_a3_a9_proc_1
      + 1188.712061387795 pi_d_a9_a3_proc_1
      + 1268.982408495048 pi_d_a4_a5_proc_1
      + 1192.390443631225 pi_d_a4_a5_proc_0
      + 1250.609556368775 pi_d_a5_a4_proc_1
      + 1174.017591504953 pi_d_a5_a4_proc_0 + 148.509919148781 pi_d_a4_a6_proc_1
      + 2287.068288534927 pi_d_a4_a6_proc_0 + 155.931711465073 pi_d_a6_a4_proc_1
      + 2294.490080851219 pi_d_a6_a4_proc_0
      + 1270.213707822886 pi_d_a4_a7_proc_1
      + 1195.104068857109 pi_d_a4_a7_proc_0
      + 1247.895931142891 pi_d_a7_a4_proc_1
      + 1172.786292177114 pi_d_a7_a4_proc_0 + 85.885056323999 pi_d_a4_a8_proc_1
      + 2357.376641445982 pi_d_a4_a8_proc_0 + 85.623358554018 pi_d_a8_a4_proc_1
      + 2357.114943676001 pi_d_a8_a4_proc_0
      + 1256.462229013324 pi_d_a4_a9_proc_1
      + 1185.829849481698 pi_d_a4_a9_proc_0
      + 1257.170150518303 pi_d_a9_a4_proc_1
      + 1186.537770986677 pi_d_a9_a4_proc_0
      + 1270.141223844987 pi_d_a5_a6_proc_1
      + 1193.531793890636 pi_d_a5_a6_proc_0
      + 1249.468206109364 pi_d_a6_a5_proc_1
      + 1172.858776155013 pi_d_a6_a5_proc_0
      + 2367.058476756759 pi_d_a5_a7_proc_1 + 76.781038450485 pi_d_a5_a7_proc_0
      + 2366.218961549514 pi_d_a7_a5_proc_1 + 75.941523243241 pi_d_a7_a5_proc_0
      + 1182.108322165174 pi_d_a5_a8_proc_1
      + 1238.432107946660 pi_d_a5_a8_proc_0
      + 1204.567892053340 pi_d_a8_a5_proc_1
      + 1260.891677834826 pi_d_a8_a5_proc_0
      + 2365.571465665037 pi_d_a5_a9_proc_1 + 79.771286792914 pi_d_a5_a9_proc_0
      + 2363.228713207086 pi_d_a9_a5_proc_1 + 77.428534334963 pi_d_a9_a5_proc_0
      + 1270.462592797473 pi_d_a6_a7_proc_1
      + 1195.335488741168 pi_d_a6_a7_proc_0
      + 1247.664511258832 pi_d_a7_a6_proc_1
      + 1172.537407202527 pi_d_a7_a6_proc_0 + 89.736541325056 pi_d_a6_a8_proc_1
      + 2361.210661356510 pi_d_a6_a8_proc_0 + 81.789338643490 pi_d_a8_a6_proc_1
      + 2353.263458674945 pi_d_a8_a6_proc_0
      + 1249.505106999216 pi_d_a6_a9_proc_1
      + 1178.855262377062 pi_d_a6_a9_proc_0
      + 1264.144737622938 pi_d_a9_a6_proc_1
      + 1193.494893000784 pi_d_a9_a6_proc_0
      + 1181.526589168034 pi_d_a7_a8_proc_1
      + 1239.332700847566 pi_d_a7_a8_proc_0
      + 1203.667299152434 pi_d_a8_a7_proc_1
      + 1261.473410831966 pi_d_a8_a7_proc_0
      + 2363.158473231888 pi_d_a7_a9_proc_1 + 78.840620257811 pi_d_a7_a9_proc_0
      + 2364.159379742189 pi_d_a9_a7_proc_1 + 79.841526768112 pi_d_a9_a7_proc_0
      + 1201.393004712014 pi_d_a8_a9_proc_1
      + 1263.676375825697 pi_d_a8_a9_proc_0
      + 1179.323624174303 pi_d_a9_a8_proc_1
      + 1241.606995287986 pi_d_a9_a8_proc_0 + 0.969109535159 pi_y2_a0_proc_0
      + 0.030890464841 pi_y2_a0_proc_1 + 0.937492367767 pi_y2_a1_proc_0
      + 0.062507632233 pi_y2_a1_proc_1 + 0.000000000291 pi_y2_a2_proc_0
      + 0.999999999709 pi_y2_a2_proc_1 + pi_y2_a3_proc_1
      + 0.062126160017 pi_y2_a4_proc_0 + 0.937873839983 pi_y2_a4_proc_1
      + 0.969238280959 pi_y2_a5_proc_0 + 0.030761719041 pi_y2_a5_proc_1
      + 0.062133311979 pi_y2_a6_proc_0 + 0.937866688021 pi_y2_a6_proc_1
      + 0.968631267897 pi_y2_a7_proc_0 + 0.031368732103 pi_y2_a7_proc_1
      + 0.007697105699 pi_y2_a8_proc_0 + 0.992302894301 pi_y2_a8_proc_1
      + 0.966797828325 pi_y2_a9_proc_0 + 0.033202171675 pi_y2_a9_proc_1
Subject To
 c1: 0.001862197393 pi_nr_a0 + 0.001036269430 pi_nr_a1 + 0.001097694841 pi_nr_a2
     + 0.001033057851 pi_nr_a3 + 0.001117318436 pi_nr_a4
     + 0.001169590643 pi_nr_a5 + 0.000819000819 pi_nr_a6
     + 0.001280409731 pi_nr_a7 + 0.001248439451 pi_nr_a8
     + 0.001267427123 pi_nr_a9 + pi_p_a1_a0 + pi_p_a2_a0 + pi_p_a1_a7
     + pi_p_a1_a4 + pi_p_a6_a3 + pi_p_a2_a2 + 2442 pi_d_a0_a1_proc_1
     + 2443 pi_d_a1_a0_proc_1 + pi_d_a1_a0_proc_0 + 1233 pi_d_a0_a2_proc_1
     + 1233 pi_d_a0_a2_proc_0 + 1210 pi_d_a2_a0_proc_1 + 1210 pi_d_a2_a0_proc_0
     + 1210 pi_d_a0_a3_proc_1 + 1233 pi_d_a3_a0_proc_1 + 1233 pi_d_a0_a4_proc_1
     + 1233 pi_d_a0_a4_proc_0 + 1210 pi_d_a4_a0_proc_1 + 1210 pi_d_a4_a0_proc_0
     + 2442 pi_d_a0_a5_proc_1 + 2443 pi_d_a5_a0_proc_1 + pi_d_a5_a0_proc_0
     + 1233 pi_d_a0_a6_proc_1 + 1233 pi_d_a0_a6_proc_0 + 1210 pi_d_a6_a0_proc_1
     + 1210 pi_d_a6_a0_proc_0 + 2442 pi_d_a0_a7_proc_1 + 2443 pi_d_a7_a0_proc_1
     + pi_d_a7_a0_proc_0 + 1233 pi_d_a0_a8_proc_1 + 1233 pi_d_a0_a8_proc_0
     + 1210 pi_d_a8_a0_proc_1 + 1210 pi_d_a8_a0_proc_0 + 2442 pi_d_a0_a9_proc_1
     + 2443 pi_d_a9_a0_proc_1 + pi_d_a9_a0_proc_0 + 1233 pi_d_a1_a2_proc_1
     + 1233 pi_d_a1_a2_proc_0 + 1210 pi_d_a2_a1_proc_1 + 1210 pi_d_a2_a1_proc_0
     + 1233 pi_d_a1_a3_proc_1 + 1210 pi_d_a3_a1_proc_1 + 1233 pi_d_a1_a4_proc_1
     + 1233 pi_d_a1_a4_proc_0 + 1210 pi_d_a4_a1_proc_1 + 1210 pi_d_a4_a1_proc_0
     + 2443 pi_d_a1_a5_proc_1 + pi_d_a1_a5_proc_0 + 2442 pi_d_a5_a1_proc_1
     + 1233 pi_d_a1_a6_proc_1 + 1233 pi_d_a1_a6_proc_0 + 1210 pi_d_a6_a1_proc_1
     + 1210 pi_d_a6_a1_proc_0 + 2443 pi_d_a1_a7_proc_1 + pi_d_a1_a7_proc_0
     + 2442 pi_d_a7_a1_proc_1 + 1233 pi_d_a1_a8_proc_1 + 1233 pi_d_a1_a8_proc_0
     + 1210 pi_d_a8_a1_proc_1 + 1210 pi_d_a8_a1_proc_0 + 2443 pi_d_a1_a9_proc_1
     + pi_d_a1_a9_proc_0 + 2442 pi_d_a9_a1_proc_1 + pi_d_a3_a2_proc_1
     + pi_d_a2_a4_proc_1 + 2443 pi_d_a2_a4_proc_0 + 2442 pi_d_a4_a2_proc_0
     + 1233 pi_d_a2_a5_proc_1 + 1233 pi_d_a2_a5_proc_0 + 1210 pi_d_a5_a2_proc_1
     + 1210 pi_d_a5_a2_proc_0 - pi_d_a2_a6_proc_1 + 2441 pi_d_a2_a6_proc_0
     + 2 pi_d_a6_a2_proc_1 + 2444 pi_d_a6_a2_proc_0 + 1233 pi_d_a2_a7_proc_1
     + 1233 pi_d_a2_a7_proc_0 + 1210 pi_d_a7_a2_proc_1 + 1210 pi_d_a7_a2_proc_0
     + pi_d_a2_a8_proc_1 + 2443 pi_d_a2_a8_proc_0 + 2442 pi_d_a8_a2_proc_0
     + 1210 pi_d_a2_a9_proc_1 + 1210 pi_d_a2_a9_proc_0 + 1233 pi_d_a9_a2_proc_1
     + 1233 pi_d_a9_a2_proc_0 + 2 pi_d_a3_a4_proc_1 - pi_d_a4_a3_proc_1
     + 1210 pi_d_a3_a5_proc_1 + 1233 pi_d_a5_a3_proc_1 + pi_d_a6_a3_proc_1
     + 1210 pi_d_a3_a7_proc_1 + 1233 pi_d_a7_a3_proc_1 + 2 pi_d_a3_a8_proc_1
     - pi_d_a8_a3_proc_1 + 1210 pi_d_a3_a9_proc_1 + 1233 pi_d_a9_a3_proc_1
     + 1233 pi_d_a4_a5_proc_1 + 1233 pi_d_a4_a5_proc_0 + 1210 pi_d_a5_a4_proc_1
     + 1210 pi_d_a5_a4_proc_0 - pi_d_a4_a6_proc_1 + 2441 pi_d_a4_a6_proc_0
     + 2 pi_d_a6_a4_proc_1 + 2444 pi_d_a6_a4_proc_0 + 1233 pi_d_a4_a7_proc_1
     + 1233 pi_d_a4_a7_proc_0 + 1210 pi_d_a7_a4_proc_1 + 1210 pi_d_a7_a4_proc_0
     + pi_d_a4_a8_proc_1 + 2443 pi_d_a4_a8_proc_0 + 2442 pi_d_a8_a4_proc_0
     + 1210 pi_d_a4_a9_proc_1 + 1210 pi_d_a4_a9_proc_0 + 1233 pi_d_a9_a4_proc_1
     + 1233 pi_d_a9_a4_proc_0 + 1233 pi_d_a5_a6_proc_1 + 1233 pi_d_a5_a6_proc_0
     + 1210 pi_d_a6_a5_proc_1 + 1210 pi_d_a6_a5_proc_0 + 2443 pi_d_a5_a7_proc_1
     + pi_d_a5_a7_proc_0 + 2442 pi_d_a7_a5_proc_1 + 1210 pi_d_a5_a8_proc_1
     + 1210 pi_d_a5_a8_proc_0 + 1233 pi_d_a8_a5_proc_1 + 1233 pi_d_a8_a5_proc_0
     + 2443 pi_d_a5_a9_proc_1 + pi_d_a5_a9_proc_0 + 2442 pi_d_a9_a5_proc_1
     + 1233 pi_d_a6_a7_proc_1 + 1233 pi_d_a6_a7_proc_0 + 1210 pi_d_a7_a6_proc_1
     + 1210 pi_d_a7_a6_proc_0 + 2 pi_d_a6_a8_proc_1 + 2444 pi_d_a6_a8_proc_0
     - pi_d_a8_a6_proc_1 + 2441 pi_d_a8_a6_proc_0 + 1210 pi_d_a6_a9_proc_1
     + 1210 pi_d_a6_a9_proc_0 + 1233 pi_d_a9_a6_proc_1 + 1233 pi_d_a9_a6_proc_0
     + 1210 pi_d_a7_a8_proc_1 + 1210 pi_d_a7_a8_proc_0 + 1233 pi_d_a8_a7_proc_1
     + 1233 pi_d_a8_a7_proc_0 + 2442 pi_d_a7_a9_proc_1 + 2443 pi_d_a9_a7_proc_1
     + pi_d_a9_a7_proc_0 + 1233 pi_d_a8_a9_proc_1 + 1233 pi_d_a8_a9_proc_0
     + 1210 pi_d_a9_a8_proc_1 + 1210 pi_d_a9_a8_proc_0 + pi_y2_a0_proc_0
     + pi_y2_a1_proc_0 + pi_y2_a2_proc_1 + pi_y2_a3_proc_1 + pi_y2_a4_proc_1
     + pi_y2_a5_proc_0 + pi_y2_a6_proc_1 + pi_y2_a7_proc_0 + pi_y2_a8_proc_1
     + pi_y2_a9_proc_0 = 0.000208507089
 c2: pi_nr_a0 + pi_nr_a1 + pi_nr_a2 + pi_nr_a3 + pi_nr_a4 + pi_nr_a5 + pi_nr_a6
     + pi_nr_a7 + pi_nr_a8 + pi_nr_a9 - pi_y1_a0 - pi_y1_a1 - pi_y1_a2
     - pi_y1_a3 - pi_y1_a4 - pi_y1_a5 - pi_y1_a6 - pi_y1_a7 - pi_y1_a8
     - pi_y1_a9 >= 1
 c3: - pi_p_a1_a0 - pi_p_a2_a0 + pi_p_a0_a8 + pi_p_a0_a9 + pi_d_a0_a1_proc_1
     + pi_d_a0_a1_proc_0 - pi_d_a1_a0_proc_1 - pi_d_a1_a0_proc_0
     + pi_d_a0_a2_proc_1 + pi_d_a0_a2_proc_0 - pi_d_a2_a0_proc_1
     - pi_d_a2_a0_proc_0 + pi_d_a0_a3_proc_1 - pi_d_a3_a0_proc_1
     + pi_d_a0_a4_proc_1 + pi_d_a0_a4_proc_0 - pi_d_a4_a0_proc_1
     - pi_d_a4_a0_proc_0 + pi_d_a0_a5_proc_1 + pi_d_a0_a5_proc_0
     - pi_d_a5_a0_proc_1 - pi_d_a5_a0_proc_0 + pi_d_a0_a6_proc_1
     + pi_d_a0_a6_proc_0 - pi_d_a6_a0_proc_1 - pi_d_a6_a0_proc_0
     + pi_d_a0_a7_proc_1 + pi_d_a0_a7_proc_0 - pi_d_a7_a0_proc_1
     - pi_d_a7_a0_proc_0 + pi_d_a0_a8_proc_1 + pi_d_a0_a8_proc_0
     - pi_d_a8_a0_proc_1 - pi_d_a8_a0_proc_0 + pi_d_a0_a9_proc_1
     + pi_d_a0_a9_proc_0 - pi_d_a9_a0_proc_1 - pi_d_a9_a0_proc_0 >= 0
 c4: 537 pi_p_a0_a8 + 537 pi_p_a0_a9 + 537 pi_d_a0_a1_proc_0
     + 537 pi_d_a0_a2_proc_0 + 537 pi_d_a0_a4_proc_0 + 537 pi_d_a0_a5_proc_0
     + 537 pi_d_a0_a6_proc_0 + 537 pi_d_a0_a7_proc_0 + 537 pi_d_a0_a8_proc_0
     + 537 pi_d_a0_a9_proc_0 + pi_y1_a0 + pi_y2_a0_proc_0 >= 0
 c5: 862 pi_p_a0_a8 + 862 pi_p_a0_a9 + 862 pi_d_a0_a1_proc_1
     + 862 pi_d_a0_a2_proc_1 + 862 pi_d_a0_a3_proc_1 + 862 pi_d_a0_a4_proc_1
     + 862 pi_d_a0_a5_proc_1 + 862 pi_d_a0_a6_proc_1 + 862 pi_d_a0_a7_proc_1
     + 862 pi_d_a0_a8_proc_1 + 862 pi_d_a0_a9_proc_1 + pi_y1_a0
     + pi_y2_a0_proc_1 >= 0
 c6: pi_p_a1_a0 - pi_p_a5_a1 - pi_p_a8_a1 + pi_p_a1_a7 + pi_p_a1_a4 - pi_p_a4_a1
     - pi_d_a0_a1_proc_1 - pi_d_a0_a1_proc_0 + pi_d_a1_a0_proc_1
     + pi_d_a1_a0_proc_0 + pi_d_a1_a2_proc_1 + pi_d_a1_a2_proc_0
     - pi_d_a2_a1_proc_1 - pi_d_a2_a1_proc_0 + pi_d_a1_a3_proc_1
     - pi_d_a3_a1_proc_1 + pi_d_a1_a4_proc_1 + pi_d_a1_a4_proc_0
     - pi_d_a4_a1_proc_1 - pi_d_a4_a1_proc_0 + pi_d_a1_a5_proc_1
     + pi_d_a1_a5_proc_0 - pi_d_a5_a1_proc_1 - pi_d_a5_a1_proc_0
     + pi_d_a1_a6_proc_1 + pi_d_a1_a6_proc_0 - pi_d_a6_a1_proc_1
     - pi_d_a6_a1_proc_0 + pi_d_a1_a7_proc_1 + pi_d_a1_a7_proc_0
     - pi_d_a7_a1_proc_1 - pi_d_a7_a1_proc_0 + pi_d_a1_a8_proc_1
     + pi_d_a1_a8_proc_0 - pi_d_a8_a1_proc_1 - pi_d_a8_a1_proc_0
     + pi_d_a1_a9_proc_1 + pi_d_a1_a9_proc_0 - pi_d_a9_a1_proc_1
     - pi_d_a9_a1_proc_0 >= 0
 c7: 965 pi_p_a1_a0 + 965 pi_p_a1_a7 + 965 pi_p_a1_a4 + 965 pi_d_a1_a0_proc_0
     + 965 pi_d_a1_a2_proc_0 + 965 pi_d_a1_a4_proc_0 + 965 pi_d_a1_a5_proc_0
     + 965 pi_d_a1_a6_proc_0 + 965 pi_d_a1_a7_proc_0 + 965 pi_d_a1_a8_proc_0
     + 965 pi_d_a1_a9_proc_0 + pi_y1_a1 + pi_y2_a1_proc_0 >= 0
 c8: 1004 pi_p_a1_a0 + 1004 pi_p_a1_a7 + 1004 pi_p_a1_a4
     + 1004 pi_d_a1_a0_proc_1 + 1004 pi_d_a1_a2_proc_1 + 1004 pi_d_a1_a3_proc_1
     + 1004 pi_d_a1_a4_proc_1 + 1004 pi_d_a1_a5_proc_1 + 1004 pi_d_a1_a6_proc_1
     + 1004 pi_d_a1_a7_proc_1 + 1004 pi_d_a1_a8_proc_1 + 1004 pi_d_a1_a9_proc_1
     + pi_y1_a1 + pi_y2_a1_proc_1 >= 0
 c9: pi_p_a2_a0 + pi_p_a2_a3 - pi_p_a4_a2 - pi_d_a0_a2_proc_1
     - pi_d_a0_a2_proc_0 + pi_d_a2_a0_proc_1 + pi_d_a2_a0_proc_0
     - pi_d_a1_a2_proc_1 - pi_d_a1_a2_proc_0 + pi_d_a2_a1_proc_1
     + pi_d_a2_a1_proc_0 + pi_d_a2_a3_proc_1 - pi_d_a3_a2_proc_1
     + pi_d_a2_a4_proc_1 + pi_d_a2_a4_proc_0 - pi_d_a4_a2_proc_1
     - pi_d_a4_a2_proc_0 + pi_d_a2_a5_proc_1 + pi_d_a2_a5_proc_0
     - pi_d_a5_a2_proc_1 - pi_d_a5_a2_proc_0 + pi_d_a2_a6_proc_1
     + pi_d_a2_a6_proc_0 - pi_d_a6_a2_proc_1 - pi_d_a6_a2_proc_0
     + pi_d_a2_a7_proc_1 + pi_d_a2_a7_proc_0 - pi_d_a7_a2_proc_1
     - pi_d_a7_a2_proc_0 + pi_d_a2_a8_proc_1 + pi_d_a2_a8_proc_0
     - pi_d_a8_a2_proc_1 - pi_d_a8_a2_proc_0 + pi_d_a2_a9_proc_1
     + pi_d_a2_a9_proc_0 - pi_d_a9_a2_proc_1 - pi_d_a9_a2_proc_0 >= 0
 c10: 979 pi_p_a2_a0 + 979 pi_p_a2_a3 + 979 pi_p_a2_a2 + 979 pi_d_a2_a0_proc_0
      + 979 pi_d_a2_a1_proc_0 + 979 pi_d_a2_a4_proc_0 + 979 pi_d_a2_a5_proc_0
      + 979 pi_d_a2_a6_proc_0 + 979 pi_d_a2_a7_proc_0 + 979 pi_d_a2_a8_proc_0
      + 979 pi_d_a2_a9_proc_0 + pi_y1_a2 + pi_y2_a2_proc_0 >= 0
 c11: 911 pi_p_a2_a0 + 911 pi_p_a2_a3 + 911 pi_p_a2_a2 + 911 pi_d_a2_a0_proc_1
      + 911 pi_d_a2_a1_proc_1 + 911 pi_d_a2_a3_proc_1 + 911 pi_d_a2_a4_proc_1
      + 911 pi_d_a2_a5_proc_1 + 911 pi_d_a2_a6_proc_1 + 911 pi_d_a2_a7_proc_1
      + 911 pi_d_a2_a8_proc_1 + 911 pi_d_a2_a9_proc_1 + pi_y1_a2
      + pi_y2_a2_proc_1 >= 0
 c12: - pi_p_a2_a3 + pi_p_a3_a6 - pi_p_a6_a3 - pi_d_a0_a3_proc_1
      + pi_d_a3_a0_proc_1 - pi_d_a1_a3_proc_1 + pi_d_a3_a1_proc_1
      - pi_d_a2_a3_proc_1 + pi_d_a3_a2_proc_1 + pi_d_a3_a4_proc_1
      - pi_d_a4_a3_proc_1 + pi_d_a3_a5_proc_1 - pi_d_a5_a3_proc_1
      + pi_d_a3_a6_proc_1 - pi_d_a6_a3_proc_1 + pi_d_a3_a7_proc_1
      - pi_d_a7_a3_proc_1 + pi_d_a3_a8_proc_1 - pi_d_a8_a3_proc_1
      + pi_d_a3_a9_proc_1 - pi_d_a9_a3_proc_1 >= 0
 c13: 968 pi_p_a3_a6 + 968 pi_d_a3_a0_proc_1 + 968 pi_d_a3_a1_proc_1
      + 968 pi_d_a3_a2_proc_1 + 968 pi_d_a3_a4_proc_1 + 968 pi_d_a3_a5_proc_1
      + 968 pi_d_a3_a6_proc_1 + 968 pi_d_a3_a7_proc_1 + 968 pi_d_a3_a8_proc_1
      + 968 pi_d_a3_a9_proc_1 + pi_y1_a3 + pi_y2_a3_proc_1 >= 0
 c14: pi_p_a4_a2 - pi_p_a7_a4 - pi_p_a1_a4 + pi_p_a4_a1 - pi_d_a0_a4_proc_1
      - pi_d_a0_a4_proc_0 + pi_d_a4_a0_proc_1 + pi_d_a4_a0_proc_0
      - pi_d_a1_a4_proc_1 - pi_d_a1_a4_proc_0 + pi_d_a4_a1_proc_1
      + pi_d_a4_a1_proc_0 - pi_d_a2_a4_proc_1 - pi_d_a2_a4_proc_0
      + pi_d_a4_a2_proc_1 + pi_d_a4_a2_proc_0 - pi_d_a3_a4_proc_1
      + pi_d_a4_a3_proc_1 + pi_d_a4_a5_proc_1 + pi_d_a4_a5_proc_0
      - pi_d_a5_a4_proc_1 - pi_d_a5_a4_proc_0 + pi_d_a4_a6_proc_1
      + pi_d_a4_a6_proc_0 - pi_d_a6_a4_proc_1 - pi_d_a6_a4_proc_0
      + pi_d_a4_a7_proc_1 + pi_d_a4_a7_proc_0 - pi_d_a7_a4_proc_1
      - pi_d_a7_a4_proc_0 + pi_d_a4_a8_proc_1 + pi_d_a4_a8_proc_0
      - pi_d_a8_a4_proc_1 - pi_d_a8_a4_proc_0 + pi_d_a4_a9_proc_1
      + pi_d_a4_a9_proc_0 - pi_d_a9_a4_proc_1 - pi_d_a9_a4_proc_0 >= 0
 c15: 884 pi_p_a4_a2 + 884 pi_p_a4_a1 + 884 pi_d_a4_a0_proc_0
      + 884 pi_d_a4_a1_proc_0 + 884 pi_d_a4_a2_proc_0 + 884 pi_d_a4_a5_proc_0
      + 884 pi_d_a4_a6_proc_0 + 884 pi_d_a4_a7_proc_0 + 884 pi_d_a4_a8_proc_0
      + 884 pi_d_a4_a9_proc_0 + pi_y1_a4 + pi_y2_a4_proc_0 >= 0
 c16: 895 pi_p_a4_a2 + 895 pi_p_a4_a1 + 895 pi_d_a4_a0_proc_1
      + 895 pi_d_a4_a1_proc_1 + 895 pi_d_a4_a2_proc_1 + 895 pi_d_a4_a3_proc_1
      + 895 pi_d_a4_a5_proc_1 + 895 pi_d_a4_a6_proc_1 + 895 pi_d_a4_a7_proc_1
      + 895 pi_d_a4_a8_proc_1 + 895 pi_d_a4_a9_proc_1 + pi_y1_a4
      + pi_y2_a4_proc_1 >= 0
 c17: pi_p_a5_a1 - pi_p_a9_a5 - pi_d_a0_a5_proc_1 - pi_d_a0_a5_proc_0
      + pi_d_a5_a0_proc_1 + pi_d_a5_a0_proc_0 - pi_d_a1_a5_proc_1
      - pi_d_a1_a5_proc_0 + pi_d_a5_a1_proc_1 + pi_d_a5_a1_proc_0
      - pi_d_a2_a5_proc_1 - pi_d_a2_a5_proc_0 + pi_d_a5_a2_proc_1
      + pi_d_a5_a2_proc_0 - pi_d_a3_a5_proc_1 + pi_d_a5_a3_proc_1
      - pi_d_a4_a5_proc_1 - pi_d_a4_a5_proc_0 + pi_d_a5_a4_proc_1
      + pi_d_a5_a4_proc_0 + pi_d_a5_a6_proc_1 + pi_d_a5_a6_proc_0
      - pi_d_a6_a5_proc_1 - pi_d_a6_a5_proc_0 + pi_d_a5_a7_proc_1
      + pi_d_a5_a7_proc_0 - pi_d_a7_a5_proc_1 - pi_d_a7_a5_proc_0
      + pi_d_a5_a8_proc_1 + pi_d_a5_a8_proc_0 - pi_d_a8_a5_proc_1
      - pi_d_a8_a5_proc_0 + pi_d_a5_a9_proc_1 + pi_d_a5_a9_proc_0
      - pi_d_a9_a5_proc_1 - pi_d_a9_a5_proc_0 >= 0
 c18: 855 pi_p_a5_a1 + 855 pi_d_a5_a0_proc_0 + 855 pi_d_a5_a1_proc_0
      + 855 pi_d_a5_a2_proc_0 + 855 pi_d_a5_a4_proc_0 + 855 pi_d_a5_a6_proc_0
      + 855 pi_d_a5_a7_proc_0 + 855 pi_d_a5_a8_proc_0 + 855 pi_d_a5_a9_proc_0
      + pi_y1_a5 + pi_y2_a5_proc_0 >= 0
 c19: 1166 pi_p_a5_a1 + 1166 pi_d_a5_a0_proc_1 + 1166 pi_d_a5_a1_proc_1
      + 1166 pi_d_a5_a2_proc_1 + 1166 pi_d_a5_a3_proc_1 + 1166 pi_d_a5_a4_proc_1
      + 1166 pi_d_a5_a6_proc_1 + 1166 pi_d_a5_a7_proc_1 + 1166 pi_d_a5_a8_proc_1
      + 1166 pi_d_a5_a9_proc_1 + pi_y1_a5 + pi_y2_a5_proc_1 >= 0
 c20: - pi_p_a3_a6 + pi_p_a6_a3 - pi_d_a0_a6_proc_1 - pi_d_a0_a6_proc_0
      + pi_d_a6_a0_proc_1 + pi_d_a6_a0_proc_0 - pi_d_a1_a6_proc_1
      - pi_d_a1_a6_proc_0 + pi_d_a6_a1_proc_1 + pi_d_a6_a1_proc_0
      - pi_d_a2_a6_proc_1 - pi_d_a2_a6_proc_0 + pi_d_a6_a2_proc_1
      + pi_d_a6_a2_proc_0 - pi_d_a3_a6_proc_1 + pi_d_a6_a3_proc_1
      - pi_d_a4_a6_proc_1 - pi_d_a4_a6_proc_0 + pi_d_a6_a4_proc_1
      + pi_d_a6_a4_proc_0 - pi_d_a5_a6_proc_1 - pi_d_a5_a6_proc_0
      + pi_d_a6_a5_proc_1 + pi_d_a6_a5_proc_0 + pi_d_a6_a7_proc_1
      + pi_d_a6_a7_proc_0 - pi_d_a7_a6_proc_1 - pi_d_a7_a6_proc_0
      + pi_d_a6_a8_proc_1 + pi_d_a6_a8_proc_0 - pi_d_a8_a6_proc_1
      - pi_d_a8_a6_proc_0 + pi_d_a6_a9_proc_1 + pi_d_a6_a9_proc_0
      - pi_d_a9_a6_proc_1 - pi_d_a9_a6_proc_0 >= 0
 c21: 785 pi_p_a6_a3 + 785 pi_d_a6_a0_proc_0 + 785 pi_d_a6_a1_proc_0
      + 785 pi_d_a6_a2_proc_0 + 785 pi_d_a6_a4_proc_0 + 785 pi_d_a6_a5_proc_0
      + 785 pi_d_a6_a7_proc_0 + 785 pi_d_a6_a8_proc_0 + 785 pi_d_a6_a9_proc_0
      + pi_y1_a6 + pi_y2_a6_proc_0 >= 0
 c22: 1221 pi_p_a6_a3 + 1221 pi_d_a6_a0_proc_1 + 1221 pi_d_a6_a1_proc_1
      + 1221 pi_d_a6_a2_proc_1 + 1221 pi_d_a6_a3_proc_1 + 1221 pi_d_a6_a4_proc_1
      + 1221 pi_d_a6_a5_proc_1 + 1221 pi_d_a6_a7_proc_1 + 1221 pi_d_a6_a8_proc_1
      + 1221 pi_d_a6_a9_proc_1 + pi_y1_a6 + pi_y2_a6_proc_1 >= 0
 c23: pi_p_a7_a4 - pi_p_a1_a7 - pi_d_a0_a7_proc_1 - pi_d_a0_a7_proc_0
      + pi_d_a7_a0_proc_1 + pi_d_a7_a0_proc_0 - pi_d_a1_a7_proc_1
      - pi_d_a1_a7_proc_0 + pi_d_a7_a1_proc_1 + pi_d_a7_a1_proc_0
      - pi_d_a2_a7_proc_1 - pi_d_a2_a7_proc_0 + pi_d_a7_a2_proc_1
      + pi_d_a7_a2_proc_0 - pi_d_a3_a7_proc_1 + pi_d_a7_a3_proc_1
      - pi_d_a4_a7_proc_1 - pi_d_a4_a7_proc_0 + pi_d_a7_a4_proc_1
      + pi_d_a7_a4_proc_0 - pi_d_a5_a7_proc_1 - pi_d_a5_a7_proc_0
      + pi_d_a7_a5_proc_1 + pi_d_a7_a5_proc_0 - pi_d_a6_a7_proc_1
      - pi_d_a6_a7_proc_0 + pi_d_a7_a6_proc_1 + pi_d_a7_a6_proc_0
      + pi_d_a7_a8_proc_1 + pi_d_a7_a8_proc_0 - pi_d_a8_a7_proc_1
      - pi_d_a8_a7_proc_0 + pi_d_a7_a9_proc_1 + pi_d_a7_a9_proc_0
      - pi_d_a9_a7_proc_1 - pi_d_a9_a7_proc_0 >= 0
 c24: 781 pi_p_a7_a4 + 781 pi_d_a7_a0_proc_0 + 781 pi_d_a7_a1_proc_0
      + 781 pi_d_a7_a2_proc_0 + 781 pi_d_a7_a4_proc_0 + 781 pi_d_a7_a5_proc_0
      + 781 pi_d_a7_a6_proc_0 + 781 pi_d_a7_a8_proc_0 + 781 pi_d_a7_a9_proc_0
      + pi_y1_a7 + pi_y2_a7_proc_0 >= 0
 c25: 1157 pi_p_a7_a4 + 1157 pi_d_a7_a0_proc_1 + 1157 pi_d_a7_a1_proc_1
      + 1157 pi_d_a7_a2_proc_1 + 1157 pi_d_a7_a3_proc_1 + 1157 pi_d_a7_a4_proc_1
      + 1157 pi_d_a7_a5_proc_1 + 1157 pi_d_a7_a6_proc_1 + 1157 pi_d_a7_a8_proc_1
      + 1157 pi_d_a7_a9_proc_1 + pi_y1_a7 + pi_y2_a7_proc_1 >= 0
 c26: pi_p_a8_a1 - pi_p_a0_a8 - pi_d_a0_a8_proc_1 - pi_d_a0_a8_proc_0
      + pi_d_a8_a0_proc_1 + pi_d_a8_a0_proc_0 - pi_d_a1_a8_proc_1
      - pi_d_a1_a8_proc_0 + pi_d_a8_a1_proc_1 + pi_d_a8_a1_proc_0
      - pi_d_a2_a8_proc_1 - pi_d_a2_a8_proc_0 + pi_d_a8_a2_proc_1
      + pi_d_a8_a2_proc_0 - pi_d_a3_a8_proc_1 + pi_d_a8_a3_proc_1
      - pi_d_a4_a8_proc_1 - pi_d_a4_a8_proc_0 + pi_d_a8_a4_proc_1
      + pi_d_a8_a4_proc_0 - pi_d_a5_a8_proc_1 - pi_d_a5_a8_proc_0
      + pi_d_a8_a5_proc_1 + pi_d_a8_a5_proc_0 - pi_d_a6_a8_proc_1
      - pi_d_a6_a8_proc_0 + pi_d_a8_a6_proc_1 + pi_d_a8_a6_proc_0
      - pi_d_a7_a8_proc_1 - pi_d_a7_a8_proc_0 + pi_d_a8_a7_proc_1
      + pi_d_a8_a7_proc_0 + pi_d_a8_a9_proc_1 + pi_d_a8_a9_proc_0
      - pi_d_a9_a8_proc_1 - pi_d_a9_a8_proc_0 >= 0
 c27: 1170 pi_p_a8_a1 + 1170 pi_d_a8_a0_proc_0 + 1170 pi_d_a8_a1_proc_0
      + 1170 pi_d_a8_a2_proc_0 + 1170 pi_d_a8_a4_proc_0 + 1170 pi_d_a8_a5_proc_0
      + 1170 pi_d_a8_a6_proc_0 + 1170 pi_d_a8_a7_proc_0 + 1170 pi_d_a8_a9_proc_0
      + pi_y1_a8 + pi_y2_a8_proc_0 >= 0
 c28: 801 pi_p_a8_a1 + 801 pi_d_a8_a0_proc_1 + 801 pi_d_a8_a1_proc_1
      + 801 pi_d_a8_a2_proc_1 + 801 pi_d_a8_a3_proc_1 + 801 pi_d_a8_a4_proc_1
      + 801 pi_d_a8_a5_proc_1 + 801 pi_d_a8_a6_proc_1 + 801 pi_d_a8_a7_proc_1
      + 801 pi_d_a8_a9_proc_1 + pi_y1_a8 + pi_y2_a8_proc_1 >= 0
 c29: pi_p_a9_a5 - pi_p_a0_a9 - pi_d_a0_a9_proc_1 - pi_d_a0_a9_proc_0
      + pi_d_a9_a0_proc_1 + pi_d_a9_a0_proc_0 - pi_d_a1_a9_proc_1
      - pi_d_a1_a9_proc_0 + pi_d_a9_a1_proc_1 + pi_d_a9_a1_proc_0
      - pi_d_a2_a9_proc_1 - pi_d_a2_a9_proc_0 + pi_d_a9_a2_proc_1
      + pi_d_a9_a2_proc_0 - pi_d_a3_a9_proc_1 + pi_d_a9_a3_proc_1
      - pi_d_a4_a9_proc_1 - pi_d_a4_a9_proc_0 + pi_d_a9_a4_proc_1
      + pi_d_a9_a4_proc_0 - pi_d_a5_a9_proc_1 - pi_d_a5_a9_proc_0
      + pi_d_a9_a5_proc_1 + pi_d_a9_a5_proc_0 - pi_d_a6_a9_proc_1
      - pi_d_a6_a9_proc_0 + pi_d_a9_a6_proc_1 + pi_d_a9_a6_proc_0
      - pi_d_a7_a9_proc_1 - pi_d_a7_a9_proc_0 + pi_d_a9_a7_proc_1
      + pi_d_a9_a7_proc_0 - pi_d_a8_a9_proc_1 - pi_d_a8_a9_proc_0
      + pi_d_a9_a8_proc_1 + pi_d_a9_a8_proc_0 >= 0
 c30: 789 pi_p_a9_a5 + 789 pi_d_a9_a0_proc_0 + 789 pi_d_a9_a1_proc_0
      + 789 pi_d_a9_a2_proc_0 + 789 pi_d_a9_a4_proc_0 + 789 pi_d_a9_a5_proc_0
      + 789 pi_d_a9_a6_proc_0 + 789 pi_d_a9_a7_proc_0 + 789 pi_d_a9_a8_proc_0
      + pi_y1_a9 + pi_y2_a9_proc_0 >= 0
 c31: 697 pi_p_a9_a5 + 697 pi_d_a9_a0_proc_1 + 697 pi_d_a9_a1_proc_1
      + 697 pi_d_a9_a2_proc_1 + 697 pi_d_a9_a3_proc_1 + 697 pi_d_a9_a4_proc_1
      + 697 pi_d_a9_a5_proc_1 + 697 pi_d_a9_a6_proc_1 + 697 pi_d_a9_a7_proc_1
      + 697 pi_d_a9_a8_proc_1 + pi_y1_a9 + pi_y2_a9_proc_1 >= 0

Bounds
       pi_y1_a0 Free
       pi_y1_a1 Free
       pi_y1_a2 Free
       pi_y1_a3 Free
       pi_y1_a4 Free
       pi_y1_a5 Free
       pi_y1_a6 Free
       pi_y1_a7 Free
       pi_y1_a8 Free
       pi_y1_a9 Free
End
