benchmark/results/graph__10-1000-0.10-02_8/graph__10-1000-0.10-02_8_QuintonOs_Benders_aux.txt
solution for: Quinton Bounded Benders_auxiliary_sub
objective: 0.0965222
status: OPTIMAL_SOLUTION(2)
pi_d_a3_a2_proc_1=0.000
pi_d_a2_a6_proc_1=0.000
pi_d_a4_a3_proc_1=0.000
pi_d_a8_a4_proc_1=0.000
pi_d_a6_a8_proc_1=0.000
pi_y1_a2=-0.190
pi_y1_a3=-0.202
pi_y1_a4=-0.187
pi_y1_a6=-0.255
pi_y1_a8=-0.167
pi_y2_a2_proc_0=0.190
pi_y2_a4_proc_0=0.187
pi_y2_a6_proc_0=0.255
pi_y2_a8_proc_0=0.167
